proyfinal/src/viki/013/andrea/andrea-localstore/experimentInOfficeAgust.take6/worker_3/056defab-a713-4421-b239-4887b8735364.als.cnf.out
Reading from standard input... Use '--help' for help.
============================[ Problem Statistics ]=============================
|                                                                             |
|  Number of variables:         87638                                         |
|  Number of clauses:          161767                                         |
|  Parse time:                   0.03 s                                       |
|                                                                             |
============================[ Search Statistics ]==============================
| Conflicts |          ORIGINAL         |          LEARNT          | Progress |
|           |    Vars  Clauses Literals |    Limit  Clauses Lit/Cl |          |
===============================================================================
|       100 |   63873   110544   276077 |    40532      100     27 | 27.117 % |
|       250 |   63873   110544   276077 |    44586      250     28 | 27.117 % |
|       475 |   63873   110544   276077 |    49044      475     52 | 27.117 % |
|       812 |   63873   110544   276077 |    53949      812     55 | 27.117 % |
|      1318 |   63849   110444   275848 |    59344     1317     51 | 27.145 % |
|      2077 |   63848   110400   275758 |    65278     2074     63 | 27.146 % |
|      3216 |   63848   110400   275758 |    71806     3213     81 | 27.146 % |
|      4924 |   54811    83244   208987 |    78986     4889     77 | 37.457 % |
|      7486 |   54232    81210   204180 |    86885     7182     78 | 38.118 % |
|     11330 |   53828    79708   200533 |    95574    10897     78 | 38.579 % |
|     17096 |   53378    78111   196628 |   105131    15927     74 | 39.093 % |
===============================================================================
restarts              : 93
conflicts             : 25084          (7351 /sec)
decisions             : 87533          (0.00 % random) (25653 /sec)
propagations          : 32751060       (9598322 /sec)
conflict literals     : 1775068        (43.73 % deleted)
Memory used           : 38.83 MB
CPU time              : 3.41216 s

INDETERMINATE
